NAME: cum20.tsp
TYPE: TSP
COMMENT: User-generated TSP file
DIMENSION: 100
EDGE_WEIGHT_TYPE: EUC_2D
NODE_COORD_SECTION
1 98.0 92.0
2 75.0 43.0
3 67.0 54.0
4 85.0 24.0
5 1.0 33.0
6 2.0 42.0
7 3.0 9.0
8 69.0 26.0
9 7.0 98.0
10 96.0 5.0
11 95.0 45.0
12 100.0 89.0
13 26.0 81.0
14 86.0 26.0
15 61.0 95.0
16 75.0 78.0
17 7.0 72.0
18 92.0 20.0
19 70.0 8.0
20 96.0 55.0
21 95.0 27.0
22 76.0 70.0
23 10.0 74.0
24 50.0 100.0
25 33.0 26.0
26 46.0 52.0
27 68.0 100.0
28 75.0 100.0
29 55.0 87.0
30 72.0 41.0
31 60.0 46.0
32 10.0 17.0
33 43.0 1.0
34 55.0 12.0
35 24.0 17.0
36 51.0 99.0
37 63.0 70.0
38 2.0 74.0
39 78.0 83.0
40 91.0 39.0
41 66.0 8.0
42 43.0 77.0
43 83.0 65.0
44 14.0 29.0
45 50.0 6.0
46 96.0 2.0
47 5.0 51.0
48 77.0 58.0
49 14.0 12.0
50 38.0 57.0
51 5.0 6.0
52 34.0 88.0
53 16.0 1.0
54 96.0 61.0
55 21.0 1.0
56 27.0 44.0
57 68.0 84.0
58 88.0 41.0
59 35.0 53.0
60 84.0 33.0
61 30.0 52.0
62 67.0 45.0
63 36.0 75.0
64 31.0 33.0
65 4.0 18.0
66 96.0 99.0
67 2.0 4.0
68 5.0 18.0
69 40.0 24.0
70 47.0 12.0
71 76.0 33.0
72 76.0 5.0
73 5.0 75.0
74 76.0 7.0
75 98.0 27.0
76 44.0 97.0
77 23.0 63.0
78 94.0 51.0
79 96.0 44.0
80 79.0 55.0
81 71.0 71.0
82 11.0 27.0
83 91.0 96.0
84 3.0 63.0
85 77.0 6.0
86 22.0 7.0
87 41.0 3.0
88 57.0 47.0
89 38.0 29.0
90 75.0 96.0
91 12.0 68.0
92 56.0 10.0
93 23.0 91.0
94 82.0 59.0
95 11.0 13.0
96 27.0 60.0
97 51.0 44.0
98 82.0 69.0
99 61.0 23.0
100 71.0 77.0
EOF

